1 107 104 2 53 54 52 51 3 48 46 49 50 47 45 42 44 43 4 41 5 38 36 39 40 37 35 32 34 33 6 31 7 28 29 30 27 26 8 23 24 25 22 21 9 20 17 18 19 16 15 12 14 13 11 10 56 59 60 57 55 58 62 61 63 64 65 66 67 68 71 72 69 70 73 74 77 78 75 76 79 80 83 84 81 82 85 86 89 90 87 88 91 94 93 96 92 95 98 101 102 97 99 100 103 106 105
